p cnf 46 158
1 2 -3 0
-1 -2 -3 0
1 -2 3 0
-1 2 3 0
-5 3 0
-5 4 0
-3 -4 5 0
-8 4 0
-8 -7 0
-4 7 8 0
-9 -6 0
-9 -8 0
6 8 9 0
-11 7 0
-11 10 0
-7 -10 11 0
-9 11 -12 0
9 -11 -12 0
-9 -11 12 0
9 11 12 0
-13 5 0
-13 -12 0
-5 12 13 0
14 -2 0
14 -1 0
2 1 -14 0
16 14 0
16 -15 0
-14 15 -16 0
13 -16 -17 0
-13 16 -17 0
13 16 17 0
-13 -16 17 0
18 10 -19 0
-18 -10 -19 0
18 -10 19 0
-18 10 19 0
-14 -3 -20 0
14 3 -20 0
-14 3 20 0
14 -3 20 0
-21 -6 0
-21 -1 0
6 1 21 0
-6 21 -22 0
6 -21 -22 0
-6 -21 22 0
6 21 22 0
22 4 -23 0
-22 -4 -23 0
22 -4 23 0
-22 4 23 0
24 -20 0
24 -23 0
20 23 -24 0
-25 -19 0
-25 -24 0
19 24 25 0
-2 27 -28 0
2 -27 -28 0
-2 -27 28 0
2 27 28 0
29 26 0
29 -28 0
-26 28 -29 0
-30 25 0
-30 29 0
-25 -29 30 0
-31 -10 0
-31 -15 0
10 15 31 0
28 -7 -32 0
-28 7 -32 0
28 7 32 0
-28 -7 32 0
-33 31 0
-33 32 0
-31 -32 33 0
-34 -30 0
-34 33 0
30 -33 34 0
-17 34 -35 0
17 -34 -35 0
-17 -34 35 0
17 34 35 0
36 -1 0
36 -11 0
1 11 -36 0
37 36 0
37 1 0
-36 -1 -37 0
-38 35 0
-38 37 0
-35 -37 38 0
-39 14 0
-39 -18 0
-14 18 39 0
-6 1 -40 0
6 -1 -40 0
-6 -1 40 0
6 1 40 0
41 39 0
41 40 0
-39 -40 -41 0
-11 6 -42 0
11 -6 -42 0
-11 -6 42 0
11 6 42 0
43 -15 0
43 -14 0
15 14 -43 0
-44 42 0
-44 43 0
-42 -43 44 0
45 -41 0
45 -44 0
41 44 -45 0
-38 -45 -46 0
38 45 -46 0
-38 45 46 0
38 -45 46 0
-20 5 -42 -39 35 -33 0
-44 28 -8 0
-25 -2 0
2 21 6 0
-41 32 -38 -15 0
35 -16 31 22 0
27 -6 -18 30 -3 -9 0
6 38 -39 -4 46 0
-15 21 43 0
14 -5 0
-25 -33 -7 -29 37 0
14 -40 0
1 -39 -11 -4 15 0
26 35 18 17 19 21 0
-2 27 0
-6 -18 -40 0
8 -26 34 0
-42 9 -19 0
12 40 -33 -36 0
32 12 0
27 10 0
-39 -33 0
21 -33 7 17 0
22 -7 -15 0
38 -41 0
16 15 -21 2 -13 0
-37 2 45 29 0
-26 -5 1 12 0
32 38 15 0
37 42 0
7 14 -32 -18 1 0
-42 16 25 0
14 10 -34 -32 -42 8 0
-8 -5 0
-8 -19 -38 -31 1 -18 0
5 31 44 43 0
46 0
